25 25
19
3 3   6 22
3 4   3 11
3 5   6 3 
3 6   0 19
3 7   19 18
3 8   16 0 
3 9   9 3 
3 10  3 15
3 11  3 0 
3 13  9 12
3 14  6 8 
3 17  16 8 
3 18  19 0 
3 19  0 0 
3 25  22 0 
4 5   12 0 
4 7   12 5 
4 13  12 12
6 3   6 0 
